\ This file has been generated by Portfolio Optimizer
\ ENCODING=ISO-8859-1
\Problem name: Portfolio Optimization
Minimize
 obj: [ 51 portfolio_weight_0^2 + 55 portfolio_weight_1^2 + 53 portfolio_weight_2^2 + 59 portfolio_weight_3^2 + 56 portfolio_weight_4^2 + 57 portfolio_weight_5^2 + 81 portfolio_weight_6^2 + 65 portfolio_weight_7^2 + 99 portfolio_weight_8^2 + 83 portfolio_weight_9^2 + 82 portfolio_weight_10^2 + 96 portfolio_weight_11^2 + 86 portfolio_weight_12^2 + 50 portfolio_weight_13^2 + 94 portfolio_weight_14^2 + 51 portfolio_weight_15^2 + 77 portfolio_weight_16^2 + 92 portfolio_weight_17^2 + 69 portfolio_weight_18^2 + 73 portfolio_weight_19^2 + 83 portfolio_weight_20^2 + 92 portfolio_weight_21^2 + 84 portfolio_weight_22^2 + 80 portfolio_weight_23^2 + 57 portfolio_weight_24^2 + 51 portfolio_weight_25^2 + 86 portfolio_weight_26^2 + 67 portfolio_weight_27^2 + 62 portfolio_weight_28^2 + 66 portfolio_weight_29^2 + 77 portfolio_weight_30^2 ]/2
Subject To
 budget: portfolio_weight_0 + portfolio_weight_1 + portfolio_weight_2 + portfolio_weight_3 + portfolio_weight_4 + portfolio_weight_5 + portfolio_weight_6 + portfolio_weight_7 + portfolio_weight_8 + portfolio_weight_9 + portfolio_weight_10 + portfolio_weight_11 + portfolio_weight_12 + portfolio_weight_13 + portfolio_weight_14 + portfolio_weight_15 + portfolio_weight_16 + portfolio_weight_17 + portfolio_weight_18 + portfolio_weight_19 + portfolio_weight_20 + portfolio_weight_21 + portfolio_weight_22 + portfolio_weight_23 + portfolio_weight_24 + portfolio_weight_25 + portfolio_weight_26 + portfolio_weight_27 + portfolio_weight_28 + portfolio_weight_29 + portfolio_weight_30 = 1
 min_esg: 5.471352741202116 portfolio_weight_0 + 9.258660117732756 portfolio_weight_1 + 9.625195592052838 portfolio_weight_2 + 9.247907592405323 portfolio_weight_3 + 5.936135957701195 portfolio_weight_4 + 8.462558521048171 portfolio_weight_5 + 6.334350133107692 portfolio_weight_6 + 6.482778965022716 portfolio_weight_7 + 4.432760763400988 portfolio_weight_8 + 7.137912122809615 portfolio_weight_9 + 4.302951284273435 portfolio_weight_10 + 5.320952893470356 portfolio_weight_11 + 8.985211411339545 portfolio_weight_12 + 4.449530664475986 portfolio_weight_13 + 3.49810799621403 portfolio_weight_14 + 3.483053148289714 portfolio_weight_15 + 9.585491643521756 portfolio_weight_16 + 6.548443065732842 portfolio_weight_17 + 5.865884502719128 portfolio_weight_18 + 8.676150067055429 portfolio_weight_19 + 8.850781495373612 portfolio_weight_20 + 5.325337231809232 portfolio_weight_21 + 7.855326402316567 portfolio_weight_22 + 8.397859710963207 portfolio_weight_23 + 7.582554808061682 portfolio_weight_24 + 4.061165523600696 portfolio_weight_25 + 9.131181584619398 portfolio_weight_26 + 6.773661869152061 portfolio_weight_27 + 4.977306984590026 portfolio_weight_28 + 5.976597298063858 portfolio_weight_29 + 3.262997632792352 portfolio_weight_30 >= 7
 max_carbon: 8.196670030560439 portfolio_weight_0 + 164.8320125773791 portfolio_weight_1 + 5.000290868884154 portfolio_weight_2 + 15.41414571205731 portfolio_weight_3 + 128.3765271628383 portfolio_weight_4 + 6.365860500024308 portfolio_weight_5 + 195.9617244458499 portfolio_weight_6 + 83.91879968745079 portfolio_weight_7 + 95.62980794544214 portfolio_weight_8 + 38.23655073530164 portfolio_weight_9 + 10.76041655293375 portfolio_weight_10 + 5.036845552157786 portfolio_weight_11 + 63.76068764527978 portfolio_weight_12 + 29.17113749498213 portfolio_weight_13 + 33.4576089971027 portfolio_weight_14 + 149.4570787705134 portfolio_weight_15 + 161.2844490438073 portfolio_weight_16 + 26.21063447726312 portfolio_weight_17 + 15.56572992534023 portfolio_weight_18 + 12.57327264101073 portfolio_weight_19 + 13.13237835057578 portfolio_weight_20 + 62.75727998591077 portfolio_weight_21 + 25.4194866626409 portfolio_weight_22 + 9.540349193915066 portfolio_weight_23 + 14.27352520394413 portfolio_weight_24 + 185.2910295123725 portfolio_weight_25 + 68.40161118168436 portfolio_weight_26 + 29.6214600690619 portfolio_weight_27 + 23.85620649205202 portfolio_weight_28 + 14.82988002569806 portfolio_weight_29 + 19.76594584986594 portfolio_weight_30 <= 80
Bounds
 w[0] <= 1
 w[1] <= 1
 w[2] <= 1
 w[3] <= 1
 w[4] <= 1
 w[5] <= 1
 w[6] <= 1
 w[7] <= 1
 w[8] <= 1
 w[9] <= 1
 w[10] <= 1
 w[11] <= 1
 w[12] <= 1
 w[13] <= 1
 w[14] <= 1
 w[15] <= 1
 w[16] <= 1
 w[17] <= 1
 w[18] <= 1
 w[19] <= 1
 w[20] <= 1
 w[21] <= 1
 w[22] <= 1
 w[23] <= 1
 w[24] <= 1
 w[25] <= 1
 w[26] <= 1
 w[27] <= 1
 w[28] <= 1
 w[29] <= 1
 w[30] <= 1
End